\ Model QCP
\ LP format - for model browsing. Use MPS format to capture full model detail.
Minimize
  z + y
Subject To
 Cut_0: z + [ ] >= 1020
 Cut_1: z + [ 0.9836065573770512 y ^2 ] >= 1251.147540983607
 Cut_2: z + [ ] >= 1020
 Cut_3: z + [ ] >= 1020
 Cut_4: z + [ ] >= 1020
 Cut_5: z + [ ] >= 1020
 Cut_6: z + [ ] >= 1020
 Cut_7: z + [ ] >= 1020
 Cut_8: z + [ ] >= 1020
 Cut_9: z + [ ] >= 1020
Bounds
 1020 <= z <= 1140
 10.63014581273465 <= y <= 15.32970971675589
End
